c WARNING: for repeatability, setting FPU to use double precision
d VARIABLES            228738       
d CONSTRAINTS          993582       
c ============================[ Problem Statistics ]=============================
c |                                                                             |
c |  Number of variables:        228738                                         |
c |  Number of clauses:          993582                                         |
c |  Parse time:                   0.16 s                                       |
c |                                                                             |
c ============================[ Search Statistics ]==============================
c | Conflicts |          ORIGINAL         |          LEARNT          | Progress |
c |           |    Vars  Clauses Literals |    Limit  Clauses Lit/Cl |          |
c ===============================================================================
c |       100 |  188479   889160  2156409 |   326025      100     31 | 17.600 % |
c |       250 |  188479   889160  2156409 |   358627      250     50 | 17.600 % |
c |       475 |  188479   889160  2156409 |   394490      475     59 | 17.600 % |
c |       812 |  188479   889160  2156409 |   433939      812     59 | 17.600 % |
c |      1318 |  188479   889160  2156409 |   477333     1318    100 | 17.600 % |
c ===============================================================================
c restarts              : 10
c conflicts             : 1539           (1221 /sec)
c decisions             : 14588          (0.00 % random) (11577 /sec)
c propagations          : 6035971        (4790157 /sec)
c conflict literals     : 156600         (3.63 % deleted)
d RESTARTS             10
d FAILURES             1539         
d NODES                14588        
d BACKTRACKS           14588        
d PROPAGATIONS         6035971      
d NOGOODSIZE           101.75 
d MEMORY               80.00 
d TIME                 1.26008 

s SATISFIABLE
